30 100000
90000 90001
89750 89751
10001 10002
89500 89501
10252 10254
89250 89251
10503 10506
89000 89001
10754 10758
88750 88751
11005 11010
88500 88501
11256 11262
88250 88251
11507 11514
88000 88001
11758 11766
87750 87751
12009 12018
87500 87501
12260 12270
87250 87251
12511 12522
87000 87001
12762 12774
86750 86751
13013 13026
86500 86501
13264 13278
86250 86251
